; taskiq :: corpus-study/repo_src/taskiq/taskiq/cli/worker/run.py :: EVENT 'start_listen::shutdown_event' :: structured encoding (verdict: unsat)
; Generated by snf-pipeline (encoder.py) -- run with any
; SMT-LIB2-compliant solver, e.g. `z3 taskiq__corpus-study_repo_src_taskiq_taskiq_cli_worker_run.py__start_listen__shutdown_event__structured.smt2`
; benchmark generated from python API
(set-info :status unknown)
(assert
 false)
(check-sat)
